p edge 700 2244
e 1 2 1
e 1 700 1
e 1 3 1
e 1 699 1
e 1 560 1
e 1 103 1
e 1 102 1
e 1 234 1
e 2 3 1
e 2 4 1
e 2 700 1
e 2 483 1
e 3 4 1
e 3 5 1
e 3 330 1
e 3 610 1
e 3 335 1
e 3 484 1
e 3 526 1
e 4 5 1
e 4 6 1
e 4 230 1
e 4 488 1
e 5 6 1
e 5 7 1
e 5 160 1
e 5 101 1
e 5 243 1
e 5 303 1
e 5 317 1
e 5 609 1
e 6 7 1
e 6 8 1
e 6 125 1
e 7 8 1
e 7 9 1
e 7 587 1
e 7 523 1
e 8 9 1
e 8 10 1
e 8 359 1
e 8 207 1
e 9 10 1
e 9 11 1
e 9 484 1
e 9 154 1
e 10 11 1
e 10 12 1
e 10 499 1
e 10 366 1
e 10 134 1
e 10 655 1
e 11 12 1
e 11 13 1
e 11 273 1
e 12 13 1
e 12 14 1
e 12 18 1
e 12 217 1
e 12 336 1
e 12 685 1
e 13 14 1
e 13 15 1
e 13 452 1
e 14 15 1
e 14 16 1
e 14 37 1
e 14 294 1
e 14 345 1
e 15 16 1
e 15 17 1
e 15 243 1
e 15 522 1
e 16 17 1
e 16 18 1
e 16 542 1
e 16 515 1
e 17 18 1
e 17 19 1
e 17 672 1
e 17 453 1
e 18 19 1
e 18 20 1
e 18 439 1
e 18 150 1
e 19 20 1
e 19 21 1
e 19 151 1
e 20 21 1
e 20 22 1
e 20 354 1
e 20 544 1
e 20 185 1
e 21 22 1
e 21 23 1
e 22 23 1
e 22 24 1
e 22 34 1
e 23 24 1
e 23 25 1
e 23 585 1
e 23 384 1
e 24 25 1
e 24 26 1
e 24 537 1
e 24 114 1
e 24 332 1
e 24 333 1
e 25 26 1
e 25 27 1
e 25 404 1
e 25 649 1
e 25 395 1
e 26 27 1
e 26 28 1
e 26 227 1
e 26 478 1
e 27 28 1
e 27 29 1
e 27 150 1
e 27 528 1
e 27 698 1
e 28 29 1
e 28 30 1
e 28 420 1
e 28 562 1
e 29 30 1
e 29 31 1
e 29 353 1
e 30 31 1
e 30 32 1
e 30 263 1
e 30 243 1
e 31 32 1
e 31 33 1
e 31 594 1
e 32 33 1
e 32 34 1
e 33 34 1
e 33 35 1
e 33 572 1
e 33 544 1
e 33 340 1
e 33 382 1
e 34 35 1
e 34 36 1
e 34 490 1
e 34 434 1
e 34 471 1
e 35 36 1
e 35 37 1
e 35 576 1
e 35 126 1
e 36 37 1
e 36 38 1
e 36 115 1
e 36 364 1
e 36 423 1
e 36 464 1
e 37 38 1
e 37 39 1
e 37 467 1
e 38 39 1
e 38 40 1
e 38 165 1
e 38 286 1
e 38 664 1
e 39 40 1
e 39 41 1
e 39 236 1
e 39 418 1
e 39 97 1
e 40 41 1
e 40 42 1
e 40 205 1
e 40 263 1
e 40 293 1
e 41 42 1
e 41 43 1
e 41 315 1
e 41 347 1
e 41 227 1
e 41 241 1
e 42 43 1
e 42 44 1
e 42 518 1
e 42 480 1
e 42 340 1
e 43 44 1
e 43 45 1
e 43 185 1
e 44 45 1
e 44 46 1
e 45 46 1
e 45 47 1
e 45 68 1
e 45 105 1
e 45 307 1
e 45 410 1
e 46 47 1
e 46 48 1
e 46 497 1
e 46 302 1
e 47 48 1
e 47 49 1
e 47 468 1
e 47 316 1
e 48 49 1
e 48 50 1
e 48 547 1
e 48 252 1
e 48 175 1
e 49 50 1
e 49 51 1
e 49 110 1
e 49 203 1
e 49 510 1
e 50 51 1
e 50 52 1
e 50 53 1
e 50 94 1
e 51 52 1
e 51 53 1
e 51 362 1
e 51 236 1
e 51 555 1
e 52 53 1
e 52 54 1
e 52 523 1
e 52 342 1
e 52 468 1
e 52 515 1
e 53 54 1
e 53 55 1
e 53 95 1
e 53 155 1
e 53 280 1
e 53 397 1
e 54 55 1
e 54 56 1
e 54 680 1
e 55 56 1
e 55 57 1
e 55 327 1
e 55 374 1
e 55 419 1
e 56 57 1
e 56 58 1
e 56 381 1
e 56 219 1
e 57 58 1
e 57 59 1
e 57 196 1
e 57 551 1
e 57 253 1
e 58 59 1
e 58 60 1
e 58 479 1
e 58 108 1
e 59 60 1
e 59 61 1
e 59 244 1
e 60 61 1
e 60 62 1
e 60 295 1
e 60 136 1
e 60 626 1
e 60 647 1
e 61 62 1
e 61 63 1
e 61 399 1
e 61 677 1
e 62 63 1
e 62 64 1
e 62 333 1
e 62 197 1
e 63 64 1
e 63 65 1
e 63 284 1
e 63 166 1
e 63 157 1
e 64 65 1
e 64 66 1
e 64 424 1
e 65 66 1
e 65 67 1
e 65 201 1
e 65 167 1
e 65 420 1
e 65 444 1
e 66 67 1
e 66 68 1
e 66 152 1
e 67 68 1
e 67 69 1
e 67 290 1
e 67 352 1
e 67 441 1
e 68 69 1
e 68 70 1
e 68 281 1
e 68 341 1
e 69 70 1
e 69 71 1
e 69 511 1
e 69 344 1
e 69 593 1
e 70 71 1
e 70 72 1
e 70 588 1
e 70 76 1
e 70 416 1
e 71 72 1
e 71 73 1
e 71 267 1
e 71 622 1
e 72 73 1
e 72 74 1
e 72 463 1
e 72 454 1
e 73 74 1
e 73 75 1
e 74 75 1
e 74 76 1
e 75 76 1
e 75 77 1
e 75 416 1
e 75 569 1
e 75 587 1
e 76 77 1
e 76 78 1
e 76 234 1
e 76 458 1
e 77 78 1
e 77 79 1
e 77 403 1
e 77 127 1
e 78 79 1
e 78 80 1
e 78 621 1
e 78 437 1
e 78 629 1
e 79 80 1
e 79 81 1
e 79 599 1
e 79 268 1
e 80 81 1
e 80 82 1
e 80 440 1
e 80 511 1
e 81 82 1
e 81 83 1
e 81 487 1
e 82 83 1
e 82 84 1
e 82 364 1
e 83 84 1
e 83 85 1
e 83 139 1
e 83 228 1
e 83 384 1
e 83 416 1
e 83 474 1
e 84 85 1
e 84 86 1
e 84 227 1
e 85 86 1
e 85 87 1
e 85 245 1
e 85 299 1
e 86 87 1
e 86 88 1
e 86 97 1
e 86 651 1
e 87 88 1
e 87 89 1
e 87 266 1
e 87 288 1
e 87 645 1
e 87 665 1
e 88 89 1
e 88 90 1
e 88 492 1
e 88 318 1
e 89 90 1
e 89 91 1
e 89 516 1
e 90 91 1
e 90 92 1
e 90 215 1
e 90 150 1
e 91 92 1
e 91 93 1
e 91 475 1
e 92 93 1
e 92 94 1
e 92 289 1
e 92 617 1
e 92 95 1
e 92 174 1
e 93 94 1
e 93 95 1
e 94 95 1
e 94 96 1
e 94 569 1
e 94 256 1
e 94 352 1
e 95 96 1
e 95 97 1
e 95 145 1
e 96 97 1
e 96 98 1
e 96 265 1
e 96 123 1
e 97 98 1
e 97 99 1
e 97 136 1
e 97 366 1
e 97 633 1
e 98 99 1
e 98 100 1
e 98 539 1
e 99 100 1
e 99 101 1
e 99 521 1
e 99 492 1
e 100 101 1
e 100 102 1
e 100 168 1
e 101 102 1
e 101 103 1
e 101 172 1
e 102 103 1
e 102 104 1
e 102 465 1
e 103 104 1
e 103 105 1
e 103 169 1
e 104 105 1
e 104 106 1
e 104 611 1
e 105 106 1
e 105 107 1
e 105 270 1
e 105 558 1
e 106 107 1
e 106 108 1
e 106 484 1
e 106 562 1
e 106 457 1
e 107 108 1
e 107 109 1
e 107 133 1
e 107 195 1
e 107 277 1
e 108 109 1
e 108 110 1
e 108 549 1
e 109 110 1
e 109 111 1
e 109 224 1
e 110 111 1
e 110 112 1
e 110 654 1
e 110 632 1
e 111 112 1
e 111 113 1
e 111 440 1
e 111 443 1
e 112 113 1
e 112 114 1
e 112 121 1
e 112 426 1
e 113 114 1
e 113 115 1
e 113 321 1
e 113 284 1
e 114 115 1
e 114 116 1
e 114 338 1
e 114 125 1
e 115 116 1
e 115 117 1
e 115 610 1
e 116 117 1
e 116 118 1
e 116 523 1
e 116 606 1
e 117 118 1
e 117 119 1
e 117 652 1
e 118 119 1
e 118 120 1
e 118 596 1
e 119 120 1
e 119 121 1
e 119 223 1
e 119 338 1
e 119 354 1
e 119 387 1
e 120 121 1
e 120 122 1
e 120 515 1
e 120 287 1
e 121 122 1
e 121 123 1
e 121 529 1
e 121 166 1
e 121 376 1
e 121 540 1
e 122 123 1
e 122 124 1
e 122 273 1
e 122 355 1
e 123 124 1
e 123 125 1
e 123 592 1
e 124 125 1
e 124 126 1
e 124 134 1
e 125 126 1
e 125 127 1
e 125 632 1
e 125 188 1
e 126 127 1
e 126 128 1
e 127 128 1
e 127 129 1
e 127 363 1
e 128 129 1
e 128 130 1
e 128 587 1
e 129 130 1
e 129 131 1
e 129 280 1
e 129 306 1
e 129 612 1
e 130 131 1
e 130 132 1
e 130 587 1
e 130 578 1
e 130 608 1
e 131 132 1
e 131 133 1
e 131 330 1
e 131 643 1
e 131 493 1
e 132 133 1
e 132 134 1
e 132 177 1
e 133 134 1
e 133 135 1
e 133 310 1
e 134 135 1
e 134 136 1
e 134 530 1
e 135 136 1
e 135 137 1
e 135 396 1
e 136 137 1
e 136 138 1
e 136 600 1
e 137 138 1
e 137 139 1
e 137 531 1
e 137 456 1
e 138 139 1
e 138 140 1
e 138 219 1
e 138 146 1
e 139 140 1
e 139 141 1
e 139 550 1
e 140 141 1
e 140 142 1
e 140 272 1
e 140 274 1
e 141 142 1
e 141 143 1
e 141 192 1
e 141 375 1
e 141 442 1
e 141 667 1
e 142 143 1
e 142 144 1
e 142 298 1
e 142 577 1
e 142 461 1
e 143 144 1
e 143 145 1
e 143 373 1
e 144 145 1
e 144 146 1
e 144 417 1
e 144 681 1
e 145 146 1
e 145 147 1
e 145 180 1
e 146 147 1
e 146 148 1
e 146 302 1
e 146 650 1
e 147 148 1
e 147 149 1
e 147 328 1
e 148 149 1
e 148 150 1
e 148 589 1
e 149 150 1
e 149 151 1
e 149 210 1
e 149 206 1
e 149 366 1
e 150 151 1
e 150 152 1
e 151 152 1
e 151 153 1
e 151 500 1
e 152 153 1
e 152 154 1
e 152 248 1
e 152 687 1
e 153 154 1
e 153 155 1
e 153 419 1
e 153 424 1
e 153 455 1
e 154 155 1
e 154 156 1
e 154 511 1
e 154 211 1
e 155 156 1
e 155 157 1
e 155 316 1
e 156 157 1
e 156 158 1
e 157 158 1
e 157 159 1
e 157 631 1
e 158 159 1
e 158 160 1
e 158 695 1
e 158 466 1
e 159 160 1
e 159 161 1
e 159 399 1
e 159 593 1
e 159 503 1
e 159 621 1
e 160 161 1
e 160 162 1
e 160 387 1
e 160 353 1
e 160 426 1
e 160 550 1
e 161 162 1
e 161 163 1
e 161 202 1
e 161 581 1
e 161 617 1
e 162 163 1
e 162 164 1
e 162 673 1
e 162 598 1
e 162 391 1
e 163 164 1
e 163 165 1
e 163 559 1
e 163 376 1
e 164 165 1
e 164 166 1
e 164 561 1
e 164 319 1
e 164 512 1
e 165 166 1
e 165 167 1
e 165 336 1
e 165 260 1
e 166 167 1
e 166 168 1
e 166 461 1
e 167 168 1
e 167 169 1
e 167 205 1
e 167 676 1
e 168 169 1
e 168 170 1
e 168 520 1
e 168 623 1
e 169 170 1
e 169 171 1
e 169 607 1
e 169 223 1
e 169 312 1
e 169 522 1
e 170 171 1
e 170 172 1
e 170 197 1
e 171 172 1
e 171 173 1
e 171 285 1
e 171 638 1
e 172 173 1
e 172 174 1
e 172 619 1
e 173 174 1
e 173 175 1
e 173 195 1
e 173 294 1
e 174 175 1
e 174 176 1
e 174 369 1
e 174 466 1
e 174 477 1
e 175 176 1
e 175 177 1
e 175 412 1
e 176 177 1
e 176 178 1
e 177 178 1
e 177 179 1
e 177 284 1
e 177 481 1
e 178 179 1
e 178 180 1
e 178 368 1
e 178 230 1
e 179 180 1
e 179 181 1
e 179 225 1
e 179 379 1
e 179 217 1
e 179 305 1
e 180 181 1
e 180 182 1
e 180 252 1
e 181 182 1
e 181 183 1
e 181 250 1
e 181 187 1
e 182 183 1
e 182 184 1
e 182 360 1
e 182 389 1
e 182 607 1
e 183 184 1
e 183 185 1
e 183 488 1
e 184 185 1
e 184 186 1
e 184 545 1
e 184 334 1
e 184 458 1
e 185 186 1
e 185 187 1
e 186 187 1
e 186 188 1
e 186 569 1
e 187 188 1
e 187 189 1
e 188 189 1
e 188 190 1
e 188 664 1
e 189 190 1
e 189 191 1
e 189 236 1
e 189 549 1
e 190 191 1
e 190 192 1
e 190 427 1
e 190 331 1
e 190 344 1
e 191 192 1
e 191 193 1
e 192 193 1
e 192 194 1
e 192 244 1
e 192 411 1
e 192 676 1
e 193 194 1
e 193 195 1
e 193 316 1
e 193 365 1
e 194 195 1
e 194 196 1
e 195 196 1
e 195 197 1
e 195 259 1
e 195 682 1
e 196 197 1
e 196 198 1
e 197 198 1
e 197 199 1
e 197 504 1
e 198 199 1
e 198 200 1
e 198 354 1
e 198 698 1
e 198 620 1
e 199 200 1
e 199 201 1
e 199 343 1
e 199 445 1
e 200 201 1
e 200 202 1
e 201 202 1
e 201 203 1
e 201 288 1
e 201 459 1
e 202 203 1
e 202 204 1
e 202 505 1
e 202 371 1
e 203 204 1
e 203 205 1
e 204 205 1
e 204 206 1
e 204 582 1
e 204 252 1
e 204 677 1
e 205 206 1
e 205 207 1
e 205 586 1
e 206 207 1
e 206 208 1
e 206 328 1
e 206 433 1
e 206 689 1
e 207 208 1
e 207 209 1
e 207 474 1
e 207 307 1
e 207 478 1
e 207 480 1
e 208 209 1
e 208 210 1
e 208 355 1
e 209 210 1
e 209 211 1
e 209 488 1
e 209 231 1
e 209 591 1
e 210 211 1
e 210 212 1
e 210 582 1
e 210 486 1
e 210 545 1
e 211 212 1
e 211 213 1
e 211 256 1
e 212 213 1
e 212 214 1
e 212 501 1
e 212 459 1
e 213 214 1
e 213 215 1
e 213 268 1
e 213 514 1
e 214 215 1
e 214 216 1
e 214 538 1
e 214 370 1
e 214 534 1
e 215 216 1
e 215 217 1
e 216 217 1
e 216 218 1
e 216 318 1
e 216 579 1
e 216 595 1
e 217 218 1
e 217 219 1
e 217 232 1
e 217 356 1
e 218 219 1
e 218 220 1
e 218 453 1
e 218 396 1
e 219 220 1
e 219 221 1
e 219 343 1
e 220 221 1
e 220 222 1
e 220 385 1
e 221 222 1
e 221 223 1
e 221 317 1
e 221 246 1
e 221 369 1
e 222 223 1
e 222 224 1
e 222 348 1
e 222 402 1
e 223 224 1
e 223 225 1
e 223 605 1
e 223 326 1
e 223 441 1
e 224 225 1
e 224 226 1
e 225 226 1
e 225 227 1
e 225 410 1
e 225 683 1
e 226 227 1
e 226 228 1
e 226 576 1
e 227 228 1
e 227 229 1
e 228 229 1
e 228 230 1
e 229 230 1
e 229 231 1
e 229 249 1
e 229 281 1
e 229 655 1
e 230 231 1
e 230 232 1
e 230 251 1
e 230 411 1
e 230 553 1
e 231 232 1
e 231 233 1
e 231 630 1
e 231 695 1
e 231 325 1
e 231 550 1
e 232 233 1
e 232 234 1
e 232 480 1
e 233 234 1
e 233 235 1
e 233 684 1
e 233 239 1
e 234 235 1
e 234 236 1
e 235 236 1
e 235 237 1
e 235 419 1
e 236 237 1
e 236 238 1
e 236 414 1
e 237 238 1
e 237 239 1
e 238 239 1
e 238 240 1
e 238 567 1
e 238 407 1
e 238 609 1
e 239 240 1
e 239 241 1
e 239 561 1
e 239 283 1
e 240 241 1
e 240 242 1
e 240 333 1
e 241 242 1
e 241 243 1
e 241 599 1
e 241 551 1
e 242 243 1
e 242 244 1
e 242 313 1
e 242 606 1
e 243 244 1
e 243 245 1
e 243 279 1
e 244 245 1
e 244 246 1
e 244 682 1
e 245 246 1
e 245 247 1
e 245 673 1
e 245 336 1
e 245 486 1
e 246 247 1
e 246 248 1
e 246 626 1
e 247 248 1
e 247 249 1
e 247 529 1
e 248 249 1
e 248 250 1
e 248 549 1
e 248 421 1
e 248 547 1
e 249 250 1
e 249 251 1
e 249 327 1
e 249 472 1
e 250 251 1
e 250 252 1
e 250 383 1
e 251 252 1
e 251 253 1
e 251 590 1
e 251 494 1
e 252 253 1
e 252 254 1
e 253 254 1
e 253 255 1
e 253 374 1
e 254 255 1
e 254 256 1
e 254 500 1
e 255 256 1
e 255 257 1
e 255 606 1
e 255 410 1
e 256 257 1
e 256 258 1
e 256 660 1
e 256 576 1
e 257 258 1
e 257 259 1
e 258 259 1
e 258 260 1
e 258 471 1
e 258 673 1
e 258 589 1
e 259 260 1
e 259 261 1
e 259 330 1
e 259 508 1
e 260 261 1
e 260 262 1
e 260 292 1
e 260 301 1
e 260 397 1
e 261 262 1
e 261 263 1
e 261 537 1
e 261 274 1
e 262 263 1
e 262 264 1
e 262 502 1
e 263 264 1
e 263 265 1
e 263 271 1
e 263 357 1
e 264 265 1
e 264 266 1
e 264 465 1
e 264 504 1
e 265 266 1
e 265 267 1
e 265 390 1
e 266 267 1
e 266 268 1
e 266 615 1
e 266 429 1
e 266 434 1
e 267 268 1
e 267 269 1
e 267 348 1
e 268 269 1
e 268 270 1
e 268 661 1
e 269 270 1
e 269 271 1
e 269 281 1
e 270 271 1
e 270 272 1
e 270 442 1
e 271 272 1
e 271 273 1
e 272 273 1
e 272 274 1
e 272 467 1
e 273 274 1
e 273 275 1
e 274 275 1
e 274 276 1
e 274 460 1
e 275 276 1
e 275 277 1
e 275 605 1
e 276 277 1
e 276 278 1
e 276 493 1
e 277 278 1
e 277 279 1
e 277 506 1
e 277 312 1
e 277 347 1
e 278 279 1
e 278 280 1
e 278 546 1
e 278 519 1
e 278 649 1
e 279 280 1
e 279 281 1
e 279 610 1
e 280 281 1
e 280 282 1
e 280 449 1
e 281 282 1
e 281 283 1
e 281 612 1
e 282 283 1
e 282 284 1
e 282 375 1
e 283 284 1
e 283 285 1
e 283 591 1
e 283 369 1
e 284 285 1
e 284 286 1
e 285 286 1
e 285 287 1
e 285 642 1
e 286 287 1
e 286 288 1
e 286 391 1
e 287 288 1
e 287 289 1
e 287 404 1
e 288 289 1
e 288 290 1
e 288 430 1
e 288 470 1
e 288 587 1
e 289 290 1
e 289 291 1
e 289 346 1
e 289 385 1
e 290 291 1
e 290 292 1
e 290 497 1
e 290 557 1
e 290 574 1
e 291 292 1
e 291 293 1
e 291 614 1
e 292 293 1
e 292 294 1
e 293 294 1
e 293 295 1
e 294 295 1
e 294 296 1
e 294 463 1
e 295 296 1
e 295 297 1
e 295 576 1
e 295 339 1
e 295 372 1
e 295 697 1
e 296 297 1
e 296 298 1
e 296 438 1
e 297 298 1
e 297 299 1
e 297 320 1
e 298 299 1
e 298 300 1
e 298 519 1
e 298 361 1
e 299 300 1
e 299 301 1
e 300 301 1
e 300 302 1
e 301 302 1
e 301 303 1
e 301 518 1
e 301 557 1
e 302 303 1
e 302 304 1
e 302 569 1
e 303 304 1
e 303 305 1
e 303 568 1
e 303 492 1
e 303 561 1
e 304 305 1
e 304 306 1
e 304 534 1
e 305 306 1
e 305 307 1
e 306 307 1
e 306 308 1
e 306 604 1
e 307 308 1
e 307 309 1
e 308 309 1
e 308 310 1
e 308 547 1
e 309 310 1
e 309 311 1
e 309 676 1
e 309 606 1
e 310 311 1
e 310 312 1
e 310 363 1
e 310 469 1
e 311 312 1
e 311 313 1
e 311 469 1
e 312 313 1
e 312 314 1
e 313 314 1
e 313 315 1
e 314 315 1
e 314 316 1
e 314 390 1
e 314 509 1
e 315 316 1
e 315 317 1
e 315 462 1
e 316 317 1
e 316 318 1
e 316 367 1
e 316 417 1
e 316 616 1
e 317 318 1
e 317 319 1
e 318 319 1
e 318 320 1
e 318 338 1
e 319 320 1
e 319 321 1
e 319 467 1
e 320 321 1
e 320 322 1
e 320 377 1
e 320 500 1
e 321 322 1
e 321 323 1
e 322 323 1
e 322 324 1
e 322 696 1
e 323 324 1
e 323 325 1
e 323 616 1
e 324 325 1
e 324 326 1
e 325 326 1
e 325 327 1
e 325 434 1
e 325 480 1
e 326 327 1
e 326 328 1
e 327 328 1
e 327 329 1
e 327 509 1
e 328 329 1
e 328 330 1
e 328 353 1
e 329 330 1
e 329 331 1
e 329 401 1
e 330 331 1
e 330 332 1
e 330 423 1
e 330 335 1
e 330 446 1
e 331 332 1
e 331 333 1
e 331 391 1
e 332 333 1
e 332 334 1
e 332 642 1
e 333 334 1
e 333 335 1
e 334 335 1
e 334 336 1
e 334 430 1
e 335 336 1
e 335 337 1
e 336 337 1
e 336 338 1
e 336 355 1
e 336 428 1
e 337 338 1
e 337 339 1
e 337 592 1
e 337 570 1
e 337 637 1
e 338 339 1
e 338 340 1
e 338 556 1
e 339 340 1
e 339 341 1
e 340 341 1
e 340 342 1
e 340 377 1
e 341 342 1
e 341 343 1
e 342 343 1
e 342 344 1
e 342 526 1
e 342 440 1
e 343 344 1
e 343 345 1
e 343 552 1
e 344 345 1
e 344 346 1
e 344 514 1
e 345 346 1
e 345 347 1
e 345 529 1
e 346 347 1
e 346 348 1
e 346 680 1
e 347 348 1
e 347 349 1
e 348 349 1
e 348 350 1
e 348 647 1
e 348 536 1
e 349 350 1
e 349 351 1
e 350 351 1
e 350 352 1
e 350 392 1
e 350 462 1
e 350 535 1
e 350 657 1
e 351 352 1
e 351 353 1
e 351 661 1
e 351 597 1
e 351 670 1
e 351 675 1
e 352 353 1
e 352 354 1
e 352 468 1
e 353 354 1
e 353 355 1
e 353 631 1
e 354 355 1
e 354 356 1
e 354 496 1
e 355 356 1
e 355 357 1
e 356 357 1
e 356 358 1
e 357 358 1
e 357 359 1
e 357 583 1
e 358 359 1
e 358 360 1
e 358 474 1
e 359 360 1
e 359 361 1
e 360 361 1
e 360 362 1
e 360 628 1
e 360 379 1
e 360 671 1
e 361 362 1
e 361 363 1
e 361 680 1
e 361 685 1
e 362 363 1
e 362 364 1
e 362 606 1
e 362 479 1
e 363 364 1
e 363 365 1
e 364 365 1
e 364 366 1
e 364 640 1
e 365 366 1
e 365 367 1
e 365 639 1
e 365 542 1
e 365 578 1
e 366 367 1
e 366 368 1
e 367 368 1
e 367 369 1
e 367 588 1
e 367 672 1
e 368 369 1
e 368 370 1
e 368 694 1
e 368 696 1
e 369 370 1
e 369 371 1
e 370 371 1
e 370 372 1
e 370 677 1
e 371 372 1
e 371 373 1
e 371 554 1
e 372 373 1
e 372 374 1
e 372 471 1
e 373 374 1
e 373 375 1
e 374 375 1
e 374 376 1
e 375 376 1
e 375 377 1
e 375 569 1
e 376 377 1
e 376 378 1
e 376 671 1
e 377 378 1
e 377 379 1
e 377 648 1
e 378 379 1
e 378 380 1
e 378 418 1
e 379 380 1
e 379 381 1
e 379 582 1
e 379 503 1
e 380 381 1
e 380 382 1
e 381 382 1
e 381 383 1
e 381 449 1
e 381 690 1
e 382 383 1
e 382 384 1
e 383 384 1
e 383 385 1
e 383 691 1
e 383 585 1
e 383 475 1
e 384 385 1
e 384 386 1
e 384 624 1
e 384 653 1
e 385 386 1
e 385 387 1
e 385 449 1
e 386 387 1
e 386 388 1
e 387 388 1
e 387 389 1
e 387 611 1
e 388 389 1
e 388 390 1
e 388 581 1
e 389 390 1
e 389 391 1
e 389 534 1
e 390 391 1
e 390 392 1
e 390 657 1
e 390 662 1
e 390 538 1
e 391 392 1
e 391 393 1
e 392 393 1
e 392 394 1
e 392 527 1
e 392 509 1
e 393 394 1
e 393 395 1
e 394 395 1
e 394 396 1
e 394 541 1
e 394 414 1
e 394 423 1
e 395 396 1
e 395 397 1
e 395 479 1
e 396 397 1
e 396 398 1
e 396 695 1
e 397 398 1
e 397 399 1
e 397 511 1
e 398 399 1
e 398 400 1
e 398 522 1
e 398 563 1
e 398 507 1
e 399 400 1
e 399 401 1
e 399 453 1
e 400 401 1
e 400 402 1
e 401 402 1
e 401 403 1
e 402 403 1
e 402 404 1
e 402 676 1
e 402 572 1
e 403 404 1
e 403 405 1
e 404 405 1
e 404 406 1
e 404 527 1
e 405 406 1
e 405 407 1
e 405 523 1
e 405 425 1
e 405 610 1
e 406 407 1
e 406 408 1
e 407 408 1
e 407 409 1
e 407 432 1
e 408 409 1
e 408 410 1
e 408 584 1
e 408 564 1
e 409 410 1
e 409 411 1
e 409 629 1
e 410 411 1
e 410 412 1
e 410 598 1
e 411 412 1
e 411 413 1
e 412 413 1
e 412 414 1
e 412 635 1
e 413 414 1
e 413 415 1
e 413 495 1
e 414 415 1
e 414 416 1
e 415 416 1
e 415 417 1
e 416 417 1
e 416 418 1
e 417 418 1
e 417 419 1
e 417 439 1
e 417 454 1
e 418 419 1
e 418 420 1
e 419 420 1
e 419 421 1
e 419 428 1
e 420 421 1
e 420 422 1
e 421 422 1
e 421 423 1
e 421 523 1
e 422 423 1
e 422 424 1
e 423 424 1
e 423 425 1
e 423 593 1
e 424 425 1
e 424 426 1
e 425 426 1
e 425 427 1
e 426 427 1
e 426 428 1
e 427 428 1
e 427 429 1
e 427 585 1
e 427 654 1
e 428 429 1
e 428 430 1
e 428 542 1
e 429 430 1
e 429 431 1
e 429 598 1
e 430 431 1
e 430 432 1
e 431 432 1
e 431 433 1
e 431 482 1
e 431 667 1
e 432 433 1
e 432 434 1
e 432 682 1
e 432 505 1
e 433 434 1
e 433 435 1
e 433 639 1
e 433 509 1
e 433 686 1
e 434 435 1
e 434 436 1
e 435 436 1
e 435 437 1
e 435 510 1
e 436 437 1
e 436 438 1
e 437 438 1
e 437 439 1
e 437 525 1
e 437 543 1
e 438 439 1
e 438 440 1
e 438 676 1
e 438 541 1
e 439 440 1
e 439 441 1
e 439 611 1
e 439 456 1
e 440 441 1
e 440 442 1
e 441 442 1
e 441 443 1
e 442 443 1
e 442 444 1
e 443 444 1
e 443 445 1
e 444 445 1
e 444 446 1
e 444 459 1
e 444 517 1
e 445 446 1
e 445 447 1
e 445 661 1
e 445 600 1
e 446 447 1
e 446 448 1
e 446 697 1
e 447 448 1
e 447 449 1
e 447 596 1
e 447 450 1
e 447 579 1
e 448 449 1
e 448 450 1
e 449 450 1
e 449 451 1
e 449 650 1
e 449 681 1
e 449 520 1
e 449 571 1
e 450 451 1
e 450 452 1
e 450 494 1
e 451 452 1
e 451 453 1
e 451 620 1
e 451 691 1
e 452 453 1
e 452 454 1
e 452 509 1
e 453 454 1
e 453 455 1
e 453 602 1
e 454 455 1
e 454 456 1
e 455 456 1
e 455 457 1
e 456 457 1
e 456 458 1
e 456 512 1
e 456 521 1
e 456 673 1
e 457 458 1
e 457 459 1
e 457 689 1
e 457 483 1
e 458 459 1
e 458 460 1
e 459 460 1
e 459 461 1
e 459 480 1
e 459 669 1
e 460 461 1
e 460 462 1
e 461 462 1
e 461 463 1
e 462 463 1
e 462 464 1
e 462 644 1
e 463 464 1
e 463 465 1
e 463 624 1
e 464 465 1
e 464 466 1
e 465 466 1
e 465 467 1
e 465 693 1
e 466 467 1
e 466 468 1
e 467 468 1
e 467 469 1
e 468 469 1
e 468 470 1
e 468 687 1
e 469 470 1
e 469 471 1
e 469 663 1
e 470 471 1
e 470 472 1
e 470 524 1
e 471 472 1
e 471 473 1
e 472 473 1
e 472 474 1
e 472 551 1
e 472 573 1
e 473 474 1
e 473 475 1
e 473 487 1
e 473 576 1
e 474 475 1
e 474 476 1
e 474 633 1
e 474 531 1
e 474 696 1
e 475 476 1
e 475 477 1
e 475 664 1
e 476 477 1
e 476 478 1
e 477 478 1
e 477 479 1
e 478 479 1
e 478 480 1
e 478 529 1
e 479 480 1
e 479 481 1
e 480 481 1
e 480 482 1
e 480 618 1
e 481 482 1
e 481 483 1
e 482 483 1
e 482 484 1
e 482 596 1
e 482 487 1
e 482 594 1
e 483 484 1
e 483 485 1
e 484 485 1
e 484 486 1
e 485 486 1
e 485 487 1
e 485 674 1
e 485 633 1
e 486 487 1
e 486 488 1
e 487 488 1
e 487 489 1
e 488 489 1
e 488 490 1
e 489 490 1
e 489 491 1
e 489 547 1
e 489 666 1
e 490 491 1
e 490 492 1
e 491 492 1
e 491 493 1
e 491 667 1
e 492 493 1
e 492 494 1
e 492 645 1
e 493 494 1
e 493 495 1
e 494 495 1
e 494 496 1
e 495 496 1
e 495 497 1
e 495 627 1
e 496 497 1
e 496 498 1
e 496 571 1
e 496 628 1
e 496 634 1
e 497 498 1
e 497 499 1
e 498 499 1
e 498 500 1
e 498 543 1
e 499 500 1
e 499 501 1
e 499 546 1
e 500 501 1
e 500 502 1
e 501 502 1
e 501 503 1
e 502 503 1
e 502 504 1
e 502 641 1
e 502 660 1
e 503 504 1
e 503 505 1
e 503 663 1
e 504 505 1
e 504 506 1
e 504 512 1
e 504 591 1
e 504 643 1
e 505 506 1
e 505 507 1
e 505 523 1
e 506 507 1
e 506 508 1
e 507 508 1
e 507 509 1
e 507 569 1
e 508 509 1
e 508 510 1
e 508 539 1
e 509 510 1
e 509 511 1
e 509 525 1
e 510 511 1
e 510 512 1
e 510 696 1
e 511 512 1
e 511 513 1
e 511 691 1
e 512 513 1
e 512 514 1
e 513 514 1
e 513 515 1
e 514 515 1
e 514 516 1
e 514 561 1
e 515 516 1
e 515 517 1
e 516 517 1
e 516 518 1
e 516 524 1
e 516 640 1
e 516 659 1
e 516 698 1
e 517 518 1
e 517 519 1
e 517 577 1
e 518 519 1
e 518 520 1
e 519 520 1
e 519 521 1
e 520 521 1
e 520 522 1
e 521 522 1
e 521 523 1
e 522 523 1
e 522 524 1
e 523 524 1
e 523 525 1
e 523 690 1
e 523 675 1
e 524 525 1
e 524 526 1
e 524 626 1
e 524 527 1
e 524 695 1
e 525 526 1
e 525 527 1
e 526 527 1
e 526 528 1
e 527 528 1
e 527 529 1
e 528 529 1
e 528 530 1
e 529 530 1
e 529 531 1
e 529 656 1
e 530 531 1
e 530 532 1
e 530 682 1
e 531 532 1
e 531 533 1
e 531 601 1
e 531 643 1
e 532 533 1
e 532 534 1
e 532 685 1
e 533 534 1
e 533 535 1
e 533 689 1
e 534 535 1
e 534 536 1
e 534 540 1
e 535 536 1
e 535 537 1
e 536 537 1
e 536 538 1
e 537 538 1
e 537 539 1
e 537 602 1
e 537 580 1
e 537 650 1
e 538 539 1
e 538 540 1
e 538 607 1
e 538 642 1
e 539 540 1
e 539 541 1
e 540 541 1
e 540 542 1
e 541 542 1
e 541 543 1
e 542 543 1
e 542 544 1
e 543 544 1
e 543 545 1
e 544 545 1
e 544 546 1
e 545 546 1
e 545 547 1
e 546 547 1
e 546 548 1
e 546 611 1
e 546 668 1
e 547 548 1
e 547 549 1
e 548 549 1
e 548 550 1
e 548 654 1
e 549 550 1
e 549 551 1
e 550 551 1
e 550 552 1
e 551 552 1
e 551 553 1
e 552 553 1
e 552 554 1
e 552 579 1
e 553 554 1
e 553 555 1
e 553 647 1
e 554 555 1
e 554 556 1
e 554 663 1
e 555 556 1
e 555 557 1
e 556 557 1
e 556 558 1
e 557 558 1
e 557 559 1
e 558 559 1
e 558 560 1
e 558 634 1
e 559 560 1
e 559 561 1
e 560 561 1
e 560 562 1
e 561 562 1
e 561 563 1
e 561 648 1
e 562 563 1
e 562 564 1
e 563 564 1
e 563 565 1
e 563 617 1
e 564 565 1
e 564 566 1
e 564 614 1
e 565 566 1
e 565 567 1
e 565 629 1
e 566 567 1
e 566 568 1
e 566 591 1
e 566 577 1
e 567 568 1
e 567 569 1
e 567 659 1
e 567 634 1
e 568 569 1
e 568 570 1
e 568 660 1
e 569 570 1
e 569 571 1
e 570 571 1
e 570 572 1
e 571 572 1
e 571 573 1
e 571 590 1
e 572 573 1
e 572 574 1
e 573 574 1
e 573 575 1
e 574 575 1
e 574 576 1
e 575 576 1
e 575 577 1
e 576 577 1
e 576 578 1
e 577 578 1
e 577 579 1
e 578 579 1
e 578 580 1
e 579 580 1
e 579 581 1
e 580 581 1
e 580 582 1
e 581 582 1
e 581 583 1
e 581 660 1
e 582 583 1
e 582 584 1
e 583 584 1
e 583 585 1
e 583 645 1
e 584 585 1
e 584 586 1
e 584 661 1
e 585 586 1
e 585 587 1
e 586 587 1
e 586 588 1
e 586 652 1
e 586 615 1
e 587 588 1
e 587 589 1
e 588 589 1
e 588 590 1
e 589 590 1
e 589 591 1
e 590 591 1
e 590 592 1
e 591 592 1
e 591 593 1
e 591 664 1
e 592 593 1
e 592 594 1
e 593 594 1
e 593 595 1
e 594 595 1
e 594 596 1
e 595 596 1
e 595 597 1
e 595 633 1
e 595 638 1
e 596 597 1
e 596 598 1
e 596 650 1
e 597 598 1
e 597 599 1
e 597 634 1
e 597 607 1
e 598 599 1
e 598 600 1
e 599 600 1
e 599 601 1
e 600 601 1
e 600 602 1
e 600 683 1
e 601 602 1
e 601 603 1
e 602 603 1
e 602 604 1
e 602 671 1
e 603 604 1
e 603 605 1
e 604 605 1
e 604 606 1
e 604 677 1
e 605 606 1
e 605 607 1
e 606 607 1
e 606 608 1
e 607 608 1
e 607 609 1
e 608 609 1
e 608 610 1
e 608 653 1
e 609 610 1
e 609 611 1
e 610 611 1
e 610 612 1
e 611 612 1
e 611 613 1
e 612 613 1
e 612 614 1
e 613 614 1
e 613 615 1
e 614 615 1
e 614 616 1
e 615 616 1
e 615 617 1
e 616 617 1
e 616 618 1
e 617 618 1
e 617 619 1
e 618 619 1
e 618 620 1
e 619 620 1
e 619 621 1
e 620 621 1
e 620 622 1
e 621 622 1
e 621 623 1
e 622 623 1
e 622 624 1
e 622 686 1
e 623 624 1
e 623 625 1
e 623 672 1
e 624 625 1
e 624 626 1
e 624 657 1
e 625 626 1
e 625 627 1
e 626 627 1
e 626 628 1
e 627 628 1
e 627 629 1
e 627 669 1
e 627 694 1
e 628 629 1
e 628 630 1
e 629 630 1
e 629 631 1
e 630 631 1
e 630 632 1
e 631 632 1
e 631 633 1
e 632 633 1
e 632 634 1
e 633 634 1
e 633 635 1
e 634 635 1
e 634 636 1
e 635 636 1
e 635 637 1
e 636 637 1
e 636 638 1
e 637 638 1
e 637 639 1
e 638 639 1
e 638 640 1
e 639 640 1
e 639 641 1
e 639 645 1
e 639 648 1
e 640 641 1
e 640 642 1
e 641 642 1
e 641 643 1
e 642 643 1
e 642 644 1
e 643 644 1
e 643 645 1
e 644 645 1
e 644 646 1
e 645 646 1
e 645 647 1
e 646 647 1
e 646 648 1
e 646 673 1
e 647 648 1
e 647 649 1
e 648 649 1
e 648 650 1
e 649 650 1
e 649 651 1
e 650 651 1
e 650 652 1
e 651 652 1
e 651 653 1
e 651 665 1
e 652 653 1
e 652 654 1
e 653 654 1
e 653 655 1
e 653 661 1
e 654 655 1
e 654 656 1
e 655 656 1
e 655 657 1
e 656 657 1
e 656 658 1
e 657 658 1
e 657 659 1
e 658 659 1
e 658 660 1
e 659 660 1
e 659 661 1
e 660 661 1
e 660 662 1
e 660 681 1
e 661 662 1
e 661 663 1
e 661 688 1
e 662 663 1
e 662 664 1
e 663 664 1
e 663 665 1
e 664 665 1
e 664 666 1
e 665 666 1
e 665 667 1
e 666 667 1
e 666 668 1
e 667 668 1
e 667 669 1
e 668 669 1
e 668 670 1
e 669 670 1
e 669 671 1
e 670 671 1
e 670 672 1
e 670 675 1
e 671 672 1
e 671 673 1
e 672 673 1
e 672 674 1
e 673 674 1
e 673 675 1
e 674 675 1
e 674 676 1
e 675 676 1
e 675 677 1
e 676 677 1
e 676 678 1
e 677 678 1
e 677 679 1
e 678 679 1
e 678 680 1
e 679 680 1
e 679 681 1
e 680 681 1
e 680 682 1
e 681 682 1
e 681 683 1
e 682 683 1
e 682 684 1
e 683 684 1
e 683 685 1
e 684 685 1
e 684 686 1
e 685 686 1
e 685 687 1
e 686 687 1
e 686 688 1
e 687 688 1
e 687 689 1
e 688 689 1
e 688 690 1
e 689 690 1
e 689 691 1
e 690 691 1
e 690 692 1
e 691 692 1
e 691 693 1
e 692 693 1
e 692 694 1
e 693 694 1
e 693 695 1
e 694 695 1
e 694 696 1
e 695 696 1
e 695 697 1
e 696 697 1
e 696 698 1
e 697 698 1
e 697 699 1
e 698 699 1
e 698 700 1
e 699 700 1